NAME : XML100_3143_25
DIMENSION : 101
NB_CLUSTERS : 28
CLUSTERING_ALG : KMeans
CLUSTERING_PARAMS : k(29)
CLUSTERS
1 0
2 13 25 83 98 100
3 24 32 59 78
4 14 47 68 69 84 87
5 50 54 93
6 4 10 11 12 65 81
7 44 46 97
8 7 18 37 48 56 61 66
9 27 28
10 8 26 53
11 22 23
12 19 62
13 1 6 16 76
14 55 57 58 72
15 35 49 60 74 86
16 21 36 67 89 96
17 38 41
18 64 73 85
19 15 39 63
20 31 79 92 95
21 30 43 70 77
22 3 45 75 80
23 2 5 29 33 40
24 9 42 91
25 17 34 71
26 51 90
27 52 82
28 20 88 94 99
EOF